NAME: random-2-18318
TYPE: TSP
COMMENT: size=2 seed=18318
DIMENSION: 6
EDGE_WEIGHT_TYPE: EUC_2D
NODE_COORD_SECTION
+0 626 559
-0 626 559
+1 667 26
-1 925 759
+2 893 175
-2 392 912
PRECEDENCE_SECTION
+0 -0
+1 -1
+2 -2
EOF
